out/bwp_3_12_1_lp.out
15
2 0    2 0
2 1    2 1
2 3    2 3
-0 10    0 10
-0 7    0 9
0 14    2 14
-0 0    1 1
-0 2    1 3
1 7    2 8
1 9    2 10
0 4    2 6
0 11    2 13
